Route #1: 21 26 12 3 1 4 16 25 6 31 28
Route #2: 10 30 29 34 19 18
Route #3: 37 11 27 22 5 7
Route #4: 14 2 17 36 13 15 32 20
Route #5: 9 8 23 35 33 24
Cost 730
Time 0.050583
Tempo = 0.0650185999693349